
Gurobi 10.0.1 (win64) logging started Tue May 23 20:00:06 2023

Set parameter LogFile to value "logFiles/A-2L-E/A-2L-6U-51F-15V-365D-basic-heuristic.log"
Gurobi Optimizer version 10.0.1 build v10.0.1rc0 (win64)

CPU model: Intel(R) Core(TM) i7-10700 CPU @ 2.90GHz, instruction set [SSE2|AVX|AVX2]
Thread count: 8 physical cores, 16 logical processors, using up to 16 threads

Optimize a model with 158963 rows, 1599929 columns and 11661706 nonzeros
Model fingerprint: 0x9a78a436
Variable types: 3293 continuous, 1596636 integer (1596636 binary)
Coefficient statistics:
  Matrix range     [1e+00, 2e+05]
  Objective range  [4e+01, 4e+07]
  Bounds range     [1e+00, 1e+00]
  RHS range        [1e+00, 8e+06]

User MIP start did not produce a new incumbent solution
User MIP start violates constraint inventory_control[DI,185] by 150000.000000000

Presolve removed 107048 rows and 72892 columns (presolve time = 5s) ...
Presolve removed 108956 rows and 72892 columns (presolve time = 10s) ...
Presolve removed 108956 rows and 72896 columns (presolve time = 15s) ...
Presolve removed 108956 rows and 72896 columns (presolve time = 20s) ...
Presolve removed 108842 rows and 72782 columns
Presolve time: 24.45s
Presolved: 50121 rows, 1527147 columns, 8951832 nonzeros
Variable types: 3327 continuous, 1523820 integer (1523766 binary)

Root relaxation: interrupted, 0 iterations, 2.10 seconds (2.73 work units)

Explored 1 nodes (0 simplex iterations) in 32.53 seconds (59.07 work units)
Thread count was 16 (of 16 available processors)

Solution count 0

Solve interrupted
Best objective -, best bound 8.091413466367e+12, gap -
IIS computation: initial model status unknown, solving to determine model status
Presolve removed 107048 rows and 72896 columns (presolve time = 5s) ...
Presolve removed 108956 rows and 72896 columns (presolve time = 10s) ...
Presolve removed 108956 rows and 72896 columns (presolve time = 15s) ...
Presolve removed 108956 rows and 72896 columns (presolve time = 20s) ...
Presolve removed 108956 rows and 72896 columns (presolve time = 25s) ...
Presolve removed 108842 rows and 72782 columns
Presolve time: 25.01s
Presolved: 50121 rows, 1527147 columns, 8951832 nonzeros
Variable types: 3327 continuous, 1523820 integer (1523766 binary)
Deterministic concurrent LP optimizer: primal simplex, dual simplex, and barrier
Showing barrier log only...

Root barrier log...

Ordering time: 4.87s

Barrier performed 0 iterations in 43.40 seconds (77.32 work units)
Optimization interrupted



Root relaxation: interrupted, 7379 iterations, 12.03 seconds (10.87 work units)

    Nodes    |    Current Node    |     Objective Bounds      |     Work
 Expl Unexpl |  Obj  Depth IntInf | Incumbent    BestBd   Gap | It/Node Time

     0     0          -    0               -   -0.00000      -     -   43s

Explored 1 nodes (7379 simplex iterations) in 43.57 seconds (67.75 work units)
Thread count was 16 (of 16 available processors)

Solution count 0

Solve interrupted
Best objective -, best bound -0.000000000000e+00, gap -
IIS runtime: 43.66 seconds (67.75 work units)

Gurobi 10.0.1 (win64) logging started Tue May 23 20:42:13 2023

Set parameter LogFile to value "logFiles/A-2L-E/A-2L-6U-51F-15V-365D-basic-heuristic.log"
Gurobi Optimizer version 10.0.1 build v10.0.1rc0 (win64)

CPU model: Intel(R) Core(TM) i7-10700 CPU @ 2.90GHz, instruction set [SSE2|AVX|AVX2]
Thread count: 8 physical cores, 16 logical processors, using up to 16 threads

Optimize a model with 158963 rows, 1599929 columns and 11661706 nonzeros
Model fingerprint: 0xf6c7e302
Variable types: 3293 continuous, 1596636 integer (1596636 binary)
Coefficient statistics:
  Matrix range     [1e+00, 2e+05]
  Objective range  [4e+01, 4e+07]
  Bounds range     [1e+00, 1e+00]
  RHS range        [1e+00, 8e+06]

Loaded user MIP start with objective 2.55692e+09

Presolve removed 107048 rows and 72892 columns (presolve time = 5s) ...
Presolve removed 108956 rows and 72892 columns (presolve time = 10s) ...
Presolve removed 108956 rows and 72896 columns (presolve time = 15s) ...
Presolve removed 108956 rows and 72896 columns (presolve time = 20s) ...
Presolve removed 108956 rows and 72896 columns (presolve time = 25s) ...
Presolve removed 108842 rows and 72782 columns
Presolve time: 25.06s
Presolved: 50121 rows, 1527147 columns, 8951832 nonzeros
Variable types: 3327 continuous, 1523820 integer (1523766 binary)
Deterministic concurrent LP optimizer: primal simplex, dual simplex, and barrier
Showing barrier log only...

Root barrier log...

Ordering time: 4.60s

Barrier statistics:
 AA' NZ     : 4.039e+06
 Factor NZ  : 4.647e+07 (roughly 1.0 GB of memory)
 Factor Ops : 1.972e+11 (roughly 1 second per iteration)
 Threads    : 6

                  Objective                Residual
Iter       Primal          Dual         Primal    Dual     Compl     Time
   0  -3.27036230e+17  6.71917251e+12  2.90e+10 6.40e+04  4.85e+11    44s
   1  -6.76934360e+16  1.13441068e+13  6.06e+09 4.48e+05  1.02e+11    47s
   2  -9.40941907e+15  1.23440146e+13  8.47e+08 2.04e+03  1.43e+10    49s
   3  -1.38740080e+14  8.40379952e+12  1.25e+07 2.02e+01  2.14e+08    53s
   4  -2.27605297e+13  2.35770821e+12  2.04e+06 1.86e-09  3.65e+07    56s
   5  -4.16970202e+12  1.82421207e+12  3.74e+05 1.40e-09  7.14e+06    61s
   6  -3.70845543e+11  1.10978659e+12  3.35e+04 1.16e-09  9.45e+05    66s
   7  -2.00476955e+11  4.48516528e+11  1.82e+04 1.57e-09  4.24e+05    71s
   8  -9.97156337e+09  1.65507536e+11  1.15e+03 1.63e-09  6.88e+04    76s
   9  -2.77471597e+09  7.16844081e+10  5.10e+02 3.49e-09  2.86e+04    80s
  10  -1.70465057e+08  4.16846855e+10  2.87e+02 4.41e-09  1.59e+04    84s
  11   1.43619014e+09  2.41497905e+10  1.52e+02 4.19e-09  8.60e+03    88s
  12   2.22206351e+09  1.93786287e+10  8.65e+01 4.67e-09  6.28e+03    92s
  13   2.51046551e+09  1.38757970e+10  6.27e+01 9.50e-09  4.21e+03    95s
  14   2.76985698e+09  1.26636588e+10  4.14e+01 1.09e-08  3.57e+03    99s
  15   2.91941718e+09  8.33599357e+09  2.97e+01 2.20e-08  2.01e+03   103s
  16   3.01434038e+09  7.36030405e+09  2.23e+01 1.86e-08  1.60e+03   107s
  17   3.08475896e+09  5.66263015e+09  1.72e+01 2.78e-08  9.74e+02   112s
  18   3.17440964e+09  5.08548342e+09  1.07e+01 2.81e-08  7.07e+02   117s
  19   3.23566385e+09  4.66698141e+09  6.62e+00 3.17e-08  5.17e+02   122s
  20   3.27159061e+09  4.17129756e+09  4.45e+00 2.95e-08  3.22e+02   127s
  21   3.27964281e+09  3.99116988e+09  3.99e+00 3.38e-08  2.54e+02   131s
  22   3.29895350e+09  3.82045247e+09  2.88e+00 3.08e-08  1.83e+02   135s
  23   3.31552619e+09  3.74709621e+09  2.14e+00 3.27e-08  1.50e+02   140s
  24   3.33362765e+09  3.61405291e+09  1.07e+00 3.30e-08  9.50e+01   144s
  25   3.34347177e+09  3.55957074e+09  6.86e-01 3.87e-08  7.25e+01   149s
  26   3.35218521e+09  3.49374060e+09  4.34e-01 3.16e-08  4.71e+01   154s
  27   3.35679961e+09  3.45459932e+09  3.26e-01 3.82e-08  3.24e+01   159s
  28   3.35912723e+09  3.43976555e+09  2.81e-01 3.52e-08  2.67e+01   163s
  29   3.36266640e+09  3.43531085e+09  2.20e-01 4.42e-08  2.40e+01   169s
  30   3.36750870e+09  3.41979915e+09  1.53e-01 3.61e-08  1.73e+01   174s
  31   3.37221758e+09  3.41166043e+09  1.05e-01 3.61e-08  1.30e+01   178s
  32   3.37476041e+09  3.40494224e+09  7.98e-02 3.35e-08  9.94e+00   183s
  33   3.37803469e+09  3.40020977e+09  5.00e-02 3.62e-08  7.29e+00   188s
  34   3.38047866e+09  3.39694229e+09  3.17e-02 3.92e-08  5.41e+00   193s
  35   3.38183487e+09  3.39487404e+09  2.34e-02 4.58e-08  4.28e+00   198s
  36   3.38249547e+09  3.39298431e+09  1.98e-02 3.82e-08  3.45e+00   202s
  37   3.38350375e+09  3.39168079e+09  1.46e-02 3.72e-08  2.69e+00   207s
  38   3.38393371e+09  3.39084655e+09  1.25e-02 4.17e-08  2.27e+00   211s
  39   3.38447088e+09  3.38968289e+09  1.01e-02 3.54e-08  1.71e+00   216s
  40   3.38487954e+09  3.38923004e+09  8.18e-03 4.12e-08  1.43e+00   221s
  41   3.38540032e+09  3.38864488e+09  5.86e-03 3.86e-08  1.07e+00   225s
  42   3.38594471e+09  3.38819640e+09  3.48e-03 3.90e-08  7.40e-01   230s
  43   3.38619071e+09  3.38779953e+09  2.43e-03 4.01e-08  5.29e-01   235s
  44   3.38639172e+09  3.38753862e+09  1.61e-03 4.33e-08  3.77e-01   240s
  45   3.38655478e+09  3.38724170e+09  9.80e-04 5.02e-08  2.26e-01   245s
  46   3.38664866e+09  3.38699065e+09  6.09e-04 5.11e-08  1.13e-01   249s
  47   3.38673618e+09  3.38690455e+09  2.79e-04 5.43e-08  5.55e-02   254s
  48   3.38678326e+09  3.38685439e+09  1.11e-04 5.48e-08  2.35e-02   258s
  49   3.38679232e+09  3.38684094e+09  8.14e-05 6.79e-08  1.61e-02   262s
  50   3.38680291e+09  3.38683536e+09  4.52e-05 7.67e-08  1.07e-02   265s
  51   3.38680969e+09  3.38682219e+09  2.29e-05 5.21e-08  4.13e-03   269s
  52   3.38681347e+09  3.38681987e+09  1.02e-05 6.72e-08  2.11e-03   273s
  53   3.38681486e+09  3.38681836e+09  6.08e-06 6.80e-08  1.16e-03   277s
  54   3.38681607e+09  3.38681751e+09  2.54e-06 5.59e-08  4.77e-04   281s
  55   3.38681672e+09  3.38681708e+09  7.21e-07 6.85e-08  1.21e-04   285s
  56   3.38681695e+09  3.38681701e+09  1.10e-07 6.07e-08  2.25e-05   289s
  57   3.38681699e+09  3.38681700e+09  1.38e-08 6.15e-08  4.70e-06   294s
  58   3.38681699e+09  3.38681699e+09  3.09e-09 5.77e-08  2.23e-07   298s
  59   3.38681699e+09  3.38681699e+09  4.19e-08 6.00e-08  1.20e-09   303s

Barrier solved model in 59 iterations and 302.97 seconds (200.25 work units)
Optimal objective 3.38681699e+09


Root crossover log...

   39343 DPushes remaining with DInf 0.0000000e+00               303s
     149 DPushes remaining with DInf 0.0000000e+00               308s
      89 DPushes remaining with DInf 0.0000000e+00               311s
       0 DPushes remaining with DInf 9.6590957e-06               317s

    1612 PPushes remaining with PInf 7.4492433e-04               317s
       0 PPushes remaining with PInf 0.0000000e+00               317s

  Push phase complete: Pinf 0.0000000e+00, Dinf 3.5202895e+01    318s


Root simplex log...

Iteration    Objective       Primal Inf.    Dual Inf.      Time
   40956    3.3868170e+09   0.000000e+00   3.520290e+01    318s
   40962    3.3868170e+09   0.000000e+00   0.000000e+00    318s
Concurrent spin time: 25.98s

Solved with barrier
   40962    3.3868170e+09   0.000000e+00   0.000000e+00    345s

Root relaxation: objective 3.386817e+09, 40962 iterations, 314.70 seconds (141.70 work units)

    Nodes    |    Current Node    |     Objective Bounds      |     Work
 Expl Unexpl |  Obj  Depth IntInf | Incumbent    BestBd   Gap | It/Node Time

     0     0 3.3868e+09    0 2501 2.5569e+09 3.3868e+09  32.5%     -  351s
H    0     0                    2.963693e+09 3.3868e+09  14.3%     -  535s
     0     0 3.3867e+09    0 2344 2.9637e+09 3.3867e+09  14.3%     - 1269s
     0     0 3.3867e+09    0 2290 2.9637e+09 3.3867e+09  14.3%     - 1275s
     0     0 3.3865e+09    0 2214 2.9637e+09 3.3865e+09  14.3%     - 3273s
     0     0 3.3864e+09    0 2228 2.9637e+09 3.3864e+09  14.3%     - 4099s
     0     0 3.3864e+09    0 2321 2.9637e+09 3.3864e+09  14.3%     - 4369s
     0     0 3.3864e+09    0 2345 2.9637e+09 3.3864e+09  14.3%     - 4437s
     0     0 3.3864e+09    0 2288 2.9637e+09 3.3864e+09  14.3%     - 4943s
     0     0 3.3864e+09    0 2353 2.9637e+09 3.3864e+09  14.3%     - 5621s
     0     0 3.3864e+09    0 2379 2.9637e+09 3.3864e+09  14.3%     - 5725s
     0     0 3.3864e+09    0 2335 2.9637e+09 3.3864e+09  14.3%     - 5764s
     0     0 3.3864e+09    0 2299 2.9637e+09 3.3864e+09  14.3%     - 6131s
     0     0 3.3863e+09    0 2316 2.9637e+09 3.3863e+09  14.3%     - 6366s
     0     0 3.3863e+09    0 2304 2.9637e+09 3.3863e+09  14.3%     - 6444s
     0     0 3.3863e+09    0 2293 2.9637e+09 3.3863e+09  14.3%     - 6727s
     0     0 3.3863e+09    0 2337 2.9637e+09 3.3863e+09  14.3%     - 6840s
     0     0 3.3863e+09    0 2334 2.9637e+09 3.3863e+09  14.3%     - 6841s
     0     0 3.3863e+09    0 2273 2.9637e+09 3.3863e+09  14.3%     - 6874s
     0     0 3.3863e+09    0 2314 2.9637e+09 3.3863e+09  14.3%     - 7063s
     0     0 3.3863e+09    0 2313 2.9637e+09 3.3863e+09  14.3%     - 7174s
     0     0 3.3863e+09    0 2332 2.9637e+09 3.3863e+09  14.3%     - 7375s
     0     0 3.3863e+09    0 2347 2.9637e+09 3.3863e+09  14.3%     - 8447s
     0     0 3.3863e+09    0 2363 2.9637e+09 3.3863e+09  14.3%     - 8602s
     0     0 3.3863e+09    0 2449 2.9637e+09 3.3863e+09  14.3%     - 8753s
     0     0 3.3863e+09    0 2320 2.9637e+09 3.3863e+09  14.3%     - 8971s
     0     0 3.3863e+09    0 2320 2.9637e+09 3.3863e+09  14.3%     - 8980s
     0     2 3.3863e+09    0 2279 2.9637e+09 3.3863e+09  14.3%     - 10440s
     1     4 3.3863e+09    1 2279 2.9637e+09 3.3863e+09  14.3% 31123 10749s
     3     8 3.3863e+09    2 2309 2.9637e+09 3.3863e+09  14.3% 15383 11499s
     7    16 3.3863e+09    3 2364 2.9637e+09 3.3863e+09  14.3% 10751 13041s

Cutting planes:
  Cover: 95
  Implied bound: 127
  Clique: 6
  MIR: 140
  StrongCG: 1
  Flow cover: 242
  Network: 3
  RLT: 54
  Relax-and-lift: 14

Explored 15 nodes (450528 simplex iterations) in 14401.90 seconds (15209.61 work units)
Thread count was 16 (of 16 available processors)

Solution count 2: 2.96369e+09 2.55692e+09 

Time limit reached
Best objective 2.963693105047e+09, best bound 3.386321341588e+09, gap 14.2602%
